(set-info :smt-lib-version 2.6)
(set-info :category "crafted")
(set-logic QF_FF)
(define-sort FF0 () (_ FiniteField 52435875175126190479447740508185965837690552500527637822603658699938581184513))
(declare-fun b () Bool)
(declare-fun e () Bool)
(declare-fun d () Bool)
(declare-fun a () Bool)
(declare-fun c () Bool)
(declare-fun f () Bool)
(declare-fun g () Bool)
(declare-fun j () Bool)
(declare-fun i () Bool)
(declare-fun h () Bool)
(declare-fun out () FF0)
(declare-fun _19 () FF0)
(declare-fun _14 () FF0)
(declare-fun _18 () FF0)
(declare-fun _16 () FF0)
(declare-fun _17 () FF0)
(declare-fun _8 () FF0)
(declare-fun _7 () FF0)
(declare-fun _15 () FF0)
(declare-fun _6 () FF0)
(declare-fun _9 () FF0)
(declare-fun _4 () FF0)
(declare-fun _13 () FF0)
(declare-fun _1 () FF0)
(declare-fun _12 () FF0)
(declare-fun _11 () FF0)
(declare-fun _3 () FF0)
(declare-fun _10 () FF0)
(declare-fun _5 () FF0)
(declare-fun _2 () FF0)
(declare-fun _0 () FF0)
(assert 
  (let ((let0 b))
  (let ((let1 e))
  (let ((let2 d))
  (let ((let3 a))
  (let ((let4 c))
  (let ((let5 (=> let4 let3)))
  (let ((let6 f))
  (let ((let7 (or let6 let5 let2 let1 let0)))
  (let ((let8 g))
  (let ((let9 j))
  (let ((let10 (or let1 let9 let8)))
  (let ((let11 i))
  (let ((let12 h))
  (let ((let13 (and let12 let11 let10 let7)))
  (let ((let14 out))
  (let ((let15 (as ff1 FF0)))
  (let ((let16 (= let15 let14)))
  (let ((let17 (= let16 let13)))
  (let ((let18 (as ff0 FF0)))
  (let ((let19 (= let18 let14)))
  (let ((let20 (or let16 let19)))
  (let ((let21 (and let20 let17)))
  (let ((let22 _19))
  (let ((let23 (= let22 let14)))
  (let ((let24 _14))
  (let ((let25 _18))
  (let ((let26 (ff.mul let25 let24)))
  (let ((let27 (= let26 let22)))
  (let ((let28 _16))
  (let ((let29 _17))
  (let ((let30 (ff.mul let29 let28)))
  (let ((let31 (= let30 let25)))
  (let ((let32 _8))
  (let ((let33 _7))
  (let ((let34 (ff.mul let33 let32)))
  (let ((let35 (= let34 let29)))
  (let ((let36 (as ff52435875175126190479447740508185965837690552500527637822603658699938581184512 FF0)))
  (let ((let37 (ff.mul let28 let36)))
  (let ((let38 _15))
  (let ((let39 _6))
  (let ((let40 (ff.add let39 let38 let37)))
  (let ((let41 (ff.mul let38 let39)))
  (let ((let42 (= let41 let40)))
  (let ((let43 (ff.mul let38 let36)))
  (let ((let44 _9))
  (let ((let45 _4))
  (let ((let46 (ff.add let45 let44 let43)))
  (let ((let47 (ff.mul let45 let44)))
  (let ((let48 (= let47 let46)))
  (let ((let49 (ff.mul let24 let36)))
  (let ((let50 _13))
  (let ((let51 _1))
  (let ((let52 (ff.add let51 let50 let49)))
  (let ((let53 (ff.mul let50 let51)))
  (let ((let54 (= let53 let52)))
  (let ((let55 (ff.mul let50 let36)))
  (let ((let56 _12))
  (let ((let57 (ff.add let45 let56 let55)))
  (let ((let58 (ff.mul let56 let45)))
  (let ((let59 (= let58 let57)))
  (let ((let60 (ff.mul let56 let36)))
  (let ((let61 _11))
  (let ((let62 _3))
  (let ((let63 (ff.add let62 let61 let60)))
  (let ((let64 (ff.mul let61 let62)))
  (let ((let65 (= let64 let63)))
  (let ((let66 (ff.mul let61 let36)))
  (let ((let67 _10))
  (let ((let68 _5))
  (let ((let69 (ff.add let68 let67 let66)))
  (let ((let70 (ff.mul let68 let67)))
  (let ((let71 (= let70 let69)))
  (let ((let72 (ff.mul let67 let36)))
  (let ((let73 _2))
  (let ((let74 (ff.mul let73 let36)))
  (let ((let75 _0))
  (let ((let76 (ff.add let75 let74 let72 let15)))
  (let ((let77 (ff.add let74 let15)))
  (let ((let78 (ff.mul let77 let75)))
  (let ((let79 (= let78 let76)))
  (let ((let80 (ff.mul let44 let44)))
  (let ((let81 (= let80 let44)))
  (let ((let82 (ff.mul let32 let32)))
  (let ((let83 (= let82 let32)))
  (let ((let84 (ff.mul let33 let33)))
  (let ((let85 (= let84 let33)))
  (let ((let86 (ff.mul let39 let39)))
  (let ((let87 (= let86 let39)))
  (let ((let88 (ff.mul let68 let68)))
  (let ((let89 (= let88 let68)))
  (let ((let90 (ff.mul let45 let45)))
  (let ((let91 (= let90 let45)))
  (let ((let92 (ff.mul let62 let62)))
  (let ((let93 (= let92 let62)))
  (let ((let94 (ff.mul let73 let73)))
  (let ((let95 (= let94 let73)))
  (let ((let96 (ff.mul let51 let51)))
  (let ((let97 (= let96 let51)))
  (let ((let98 (ff.mul let75 let75)))
  (let ((let99 (= let98 let75)))
  (let ((let100 (and let99 let97 let95 let93 let91 let89 let87 let85 let83 let81 let79 let71 let65 let59 let54 let48 let42 let35 let31 let27 let23)))
  (let ((let101 (ite let8 let15 let18)))
  (let ((let102 (= let39 let101)))
  (let ((let103 (ite let4 let15 let18)))
  (let ((let104 (= let73 let103)))
  (let ((let105 (ite let11 let15 let18)))
  (let ((let106 (= let32 let105)))
  (let ((let107 (ite let9 let15 let18)))
  (let ((let108 (= let44 let107)))
  (let ((let109 (ite let1 let15 let18)))
  (let ((let110 (= let45 let109)))
  (let ((let111 (ite let3 let15 let18)))
  (let ((let112 (= let75 let111)))
  (let ((let113 (ite let12 let15 let18)))
  (let ((let114 (= let33 let113)))
  (let ((let115 (ite let6 let15 let18)))
  (let ((let116 (= let68 let115)))
  (let ((let117 (ite let2 let15 let18)))
  (let ((let118 (= let62 let117)))
  (let ((let119 (ite let0 let15 let18)))
  (let ((let120 (= let51 let119)))
  (let ((let121 (and let120 let118 let116 let114 let112 let110 let108 let106 let104 let102)))
  (let ((let122 (and let121 let100)))
  (let ((let123 (=> let122 let21)))
  (let ((let124 (not let123)))
  let124
)))))))))))))))))))))))))))))))))))))))))))))))))))))))))))))))))))))))))))))))))))))))))))))))))))))))))))))))))))))))))))))
)
(check-sat)
